output [show(prefs),"\n",show(order),"\n",show(distances),"\n",show(max(distances))];
int: n_prefs = 17;
set of int: students = 1..9;
set of int: preferences = 1..17;
array [preferences,1..2] of int: prefs = [|1,3|1,5|1,8|2,5|2,9|3,4|3,5|4,1|4,5|5,6|5,1|6,1|6,9|7,3|7,8|8,9|8,7|];
array [students] of int: order;
array [1..n_prefs] of int: distances;
